
   AbsCon 1.41 (January, 2014) - defaultConfiguration

   
   instance
        framework=CSP  name=Isomorphism-/cluster/gpg/ciaran/sip-benchmarks/benchmarks/meshes-CVIU11/patterns/pattern6-/cluster/gpg/ciaran/sip-benchmarks/benchmarks/meshes-CVIU11/targets/target523
        parameters=/cluster/gpg/ciaran/sip-benchmarks/benchmarks/meshes-CVIU11/patterns/pattern6,/cluster/gpg/ciaran/sip-benchmarks/benchmarks/meshes-CVIU11/targets/target523
      

   loading variables...
        nbVariables=199  nbDomainTypes=1  nbTotalValues=93928  domainSizes=(472:199)
          =>  wckTime=0.19  cpuTime=0.304  mem=8M210

   loading objectives...

   loading constraints...
        nbConstraints=540  nbSpecificConstraints=1  nbExtensionStructures=(1,shared:538)  nbConflictsStructures=(1,shared:538,unbuilt:1)
        degrees=(4:25)(5:32)(6:29)...(8:26)(9:1)(11:6)  arities=(2:539)(199:1)  types=(AllDifferent:1)(ConstraintHardExtensionV-Bits:539)
          =>  wckTime=0.374  cpuTime=0.476  mem=13M570

   INFO : <!-- Start saving the XML representation -->

   INFO : <!-- Stop saving the XML representation of target523.xml -->

   Solver SolverBacktrack being built... 
          =>  wckTime=0.641  cpuTime=0.712  mem=26M836

   
   search
        run=0  nbConstraintChecks=0  depth=(min:0,max:0,avg:1)  nbEffectivePropagations=11734  nbRevisions=63011  nbUselessRevisions=51459
        nbAssignments=456  nbFailedAssignments=456  nbBacktracks=1  nbVisitedNodes=913  nbRestartNogoods=0
          =>  wckTime=4.739  cpuTime=5.362  mem=73M676

   
   global
        nbConstraintChecks=0  nbEffectivePropagations=11734  nbRevisions=63011  nbUselessRevisions=51459  nbRestartNogoods=0
        solvingWckTime=4.74  expiredTime=no  totalExploration=yes  nbFoundSolutions=0  Stop=FULL_EXPLORATION
          =>  wckTime=5.381  cpuTime=5.363  mem=73M676

s UNSATISFIABLE
d NODES 456

   totalWckTime=5.285  totalCpuTime=5.363
